p cnf 20 8
a 1 0
e 2 3 0
a 4 5 0
e 6 0
a 7 0
e 8 9 10 11 0
a 12 13 0
e 14 15 0
a 16 17 0
e 18 0
a 19 20 0
-19 14 -16 -3 0
19 6 8 -5 -18 0
-1 -19 17 0
14 -12 -20 -3 -6 0
13 18 6 -5 -19 0
-9 15 7 8 20 0
-1 6 -16 -4 5 0
-7 -4 0
